; benchmark generated from python API
(set-info :status unknown)
(declare-fun x_month () Int)
(declare-fun x_day () Int)
(declare-fun x_year () Int)
(assert
 (>= x_month 1))
(assert
 (<= x_month 12))
(assert
 (>= x_day 1))
(assert
 (<= x_day 31))
(assert
 (let (($x299 (<= x_day 28)))
 (let (($x283 (<= x_day 29)))
 (let (($x273 (= (mod x_year 400) 0)))
 (let (($x265 (= (mod x_year 4) 0)))
 (let (($x278 (ite (or (and $x265 (and (distinct (mod x_year 100) 0) true)) $x273) $x283 $x299)))
 (let (($x121 (= x_month 2)))
 (ite $x121 $x278 true))))))))
(assert
 (let (($x125 (<= x_day 30)))
 (let (($x289 (or (= x_month 4) (= x_month 6) (= x_month 9) (= x_month 11))))
 (ite $x289 $x125 true))))
(assert
 (let (($x254 (= x_year 2020)))
 (let (($x223 (and $x254 (or (> x_month 1) (and (= x_month 1) (>= x_day 1))))))
 (or (> x_year 2020) $x223))))
(assert
 (let (($x254 (= x_year 2020)))
 (let (($x129 (and $x254 (or (< x_month 2) (and (= x_month 2) (<= x_day 28))))))
 (or (< x_year 2020) $x129))))
(assert
 (let (($x282 (or (= (+ (mod (- (+ x_month 0) 1) 12) 1) 4) (= (+ (mod (- (+ x_month 0) 1) 12) 1) 6) (= (+ (mod (- (+ x_month 0) 1) 12) 1) 9) (= (+ (mod (- (+ x_month 0) 1) 12) 1) 11))))
(let ((?x153 (ite $x282 30 31)))
(let ((?x315 (- (+ x_month 0) 1)))
(let ((?x319 (div ?x315 12)))
(let ((?x458 (+ (+ x_year 0) ?x319)))
(let (($x446 (or (and (= (mod ?x458 4) 0) (and (distinct (mod ?x458 100) 0) true)) (= (mod ?x458 400) 0))))
(let ((?x279 (+ (mod ?x315 12) 1)))
(let (($x281 (= ?x279 2)))
(let ((?x448 (ite $x281 (ite $x446 29 28) ?x153)))
(let (($x143 (< x_day 1)))
(let ((?x456 (ite $x143 1 (ite (> x_day ?x448) ?x448 x_day))))
(let ((?x462 (ite (< ?x456 1) 1 (ite (> ?x456 ?x448) ?x448 ?x456))))
(let ((?x421 (div (+ (* 153 (+ ?x279 (ite (< 2 ?x279) (- 3) 9))) 2) 5)))
(let ((?x372 (ite (>= 2 ?x279) 1 0)))
(let ((?x450 (- (+ ?x458 (* (div 365 146097) 400)) ?x372)))
(let ((?x367 (ite (<= 0 ?x450) (div ?x450 400) (div (- ?x450 399) 400))))
(let ((?x234 (- ?x450 (* ?x367 400))))
(let ((?x185 (+ (- (+ (* ?x234 365) (div ?x234 4)) (div ?x234 100)) (- (+ ?x421 ?x462) 1))))
(let ((?x189 (+ (+ (* ?x367 146097) ?x185) (mod 365 146097))))
(let ((?x218 (ite (<= 0 ?x189) (div ?x189 146097) (div (- ?x189 146096) 146097))))
(let ((?x225 (- ?x189 (* ?x218 146097))))
(let ((?x183 (div (+ (* 400 ?x225) 591) 146097)))
(let ((?x172 (- ?x225 (- (+ (* 365 ?x183) (div ?x183 4)) (div ?x183 100)))))
(let ((?x176 (div (+ (* 5 ?x172) 2) 153)))
(let ((?x207 (+ (- ?x172 (div (+ (* 153 ?x176) 2) 5)) 1)))
(let (($x463 (= 0 365)))
(let (($x313 (and (= (mod (+ (+ x_year 1) ?x319) 4) 0) (and (distinct (mod (+ (+ x_year 1) ?x319) 100) 0) true))))
(let ((?x310 (ite (or $x313 (= (mod (+ (+ x_year 1) ?x319) 400) 0)) 29 28)))
(let ((?x154 (ite $x281 ?x310 ?x153)))
(let ((?x257 (ite $x143 1 (ite (> x_day ?x154) ?x154 x_day))))
(let ((?x139 (ite (< ?x257 1) 1 (ite (> ?x257 ?x154) ?x154 ?x257))))
(let ((?x373 (- (+ (+ (+ x_year 1) ?x319) (* (div 0 146097) 400)) ?x372)))
(let ((?x404 (ite (<= 0 ?x373) (div ?x373 400) (div (- ?x373 399) 400))))
(let ((?x406 (- ?x373 (* ?x404 400))))
(let ((?x416 (+ (- (+ (* ?x406 365) (div ?x406 4)) (div ?x406 100)) (- (+ ?x421 ?x139) 1))))
(let ((?x394 (+ (+ (* ?x404 146097) ?x416) (mod 0 146097))))
(let ((?x382 (ite (<= 0 ?x394) (div ?x394 146097) (div (- ?x394 146096) 146097))))
(let ((?x384 (- ?x394 (* ?x382 146097))))
(let ((?x388 (div (+ (* 400 ?x384) 591) 146097)))
(let ((?x395 (- ?x384 (- (+ (* 365 ?x388) (div ?x388 4)) (div ?x388 100)))))
(let ((?x398 (div (+ (* 5 ?x395) 2) 153)))
(let (($x325 (= 0 0)))
(let ((?x438 (ite $x325 ?x139 (+ (- ?x395 (div (+ (* 153 ?x398) 2) 5)) 1))))
(let (($x324 (= (ite $x325 ?x279 (- (+ ?x398 3) (ite (> 10 ?x398) 0 12))) (ite $x463 ?x279 (- (+ ?x176 3) (ite (> 10 ?x176) 0 12))))))
(let ((?x210 (ite (>= 2 (- (+ ?x176 3) (ite (> 10 ?x176) 0 12))) 1 0)))
(let ((?x202 (+ (+ ?x183 (* ?x218 400)) ?x210)))
(let ((?x434 (ite (>= 2 (- (+ ?x398 3) (ite (> 10 ?x398) 0 12))) 1 0)))
(let ((?x326 (+ (+ x_year 1) ?x319)))
(let (($x323 (= (ite $x325 ?x326 (+ (+ ?x388 (* ?x382 400)) ?x434)) (ite $x463 ?x458 ?x202))))
(not (and $x323 $x324 (= ?x438 (ite $x463 ?x462 ?x207))))))))))))))))))))))))))))))))))))))))))))))))))))))
(check-sat)
